# Objective value = 2.9948510862505543e+02
x[0] 0
x[1] 1
x[2] 1
x[3] 0
x[4] 0
x[5] 1
x[6] 1
x[7] 0
x[8] 0
x[9] 0
x[10] 1
x[11] 0
x[12] 1
x[13] 1
x[14] 0
x[15] 1
x[16] 0
x[17] 1
x[18] 0
x[19] 1
x[20] 0
x[21] 0
x[22] 0
x[23] 1
x[24] 1
x[25] 0
x[26] 0
x[27] 0
x[28] 1
x[29] 1
x[30] 1
x[31] 0
x[32] 0
x[33] 0
x[34] 0
x[35] 0
x[36] 0
x[37] 0
x[38] 0
x[39] 1
x[40] 1
x[41] 1
x[42] 0
x[43] 0
x[44] 0
x[45] 1
x[46] 0
x[47] 0
x[48] 1
x[49] 1
x[50] 1
x[51] 1
x[52] 0
x[53] 0
x[54] 0
x[55] 0
x[56] 0
x[57] 1
x[58] 1
x[59] 0
x[60] 0
x[61] 1
x[62] 1
x[63] 1
x[64] 1
x[65] 1
x[66] 0
x[67] 1
x[68] 1
x[69] 1
x[70] 0
x[71] 0
x[72] 0
x[73] 1
x[74] 1
x[75] 0
x[76] 1
x[77] 0
x[78] 1
x[79] 0
x[80] 1
x[81] 1
x[82] 0
x[83] 0
x[84] 0
x[85] 0
x[86] 0
x[87] 0
x[88] 1
x[89] 0
x[90] 0
x[91] 1
x[92] 0
x[93] 0
x[94] 0
x[95] 1
x[96] 1
x[97] 0
x[98] 0
x[99] 0
x[100] 1
x[101] 0
x[102] 0
x[103] 1
x[104] 0
x[105] 0
x[106] 1
x[107] 0
x[108] 0
x[109] 0
x[110] 1
x[111] 0
x[112] 0
x[113] 0
x[114] 0
x[115] 1
x[116] 0
x[117] 0
x[118] 0
x[119] 0
x[120] 0
x[121] 1
x[122] 0
x[123] 1
x[124] 0
x[125] 0
x[126] 0
x[127] 0
x[128] 1
x[129] 0
x[130] 0
x[131] 1
x[132] 1
x[133] 1
x[134] 0
x[135] 0
x[136] 1
x[137] 1
x[138] 0
x[139] 0
x[140] 1
x[141] 1
x[142] 1
x[143] 0
x[144] 1
x[145] 0
x[146] 0
x[147] 0
x[148] 0
x[149] 1
x[150] 0
x[151] 1
x[152] 1
x[153] 0
x[154] 0
x[155] 1
x[156] 1
x[157] 1
x[158] 0
x[159] 1
x[160] 0
x[161] 1
x[162] 1
x[163] 0
x[164] 0
x[165] 0
x[166] 0
x[167] 1
x[168] 1
x[169] 1
x[170] 1
x[171] 1
x[172] 0
x[173] 1
x[174] 1
x[175] 1
x[176] 0
x[177] 0
x[178] 0
x[179] 1
x[180] 1
x[181] 0
x[182] 0
x[183] 1
x[184] 0
x[185] 0
x[186] 0
x[187] 0
x[188] 1
x[189] 0
x[190] 0
x[191] 1
x[192] 0
x[193] 0
x[194] 1
x[195] 1
x[196] 1
x[197] 0
x[198] 0
x[199] 0
x[200] 0
x[201] 0
x[202] 0
x[203] 0
x[204] 0
x[205] 1
x[206] 0
x[207] 1
x[208] 1
x[209] 1
x[210] 1
x[211] 0
x[212] 1
x[213] 0
x[214] 0
x[215] 1
x[216] 0
x[217] 0
x[218] 0
x[219] 1
x[220] 1
x[221] 1
x[222] 1
x[223] 1
x[224] 0
x[225] 1
x[226] 0
x[227] 1
x[228] 1
x[229] 0
x[230] 1
x[231] 1
x[232] 1
x[233] 0
x[234] 1
x[235] 0
x[236] 0
x[237] 1
x[238] 0
x[239] 0
x[240] 1
x[241] 0
x[242] 0
x[243] 1
x[244] 0
x[245] 1
x[246] 0
x[247] 0
x[248] 1
x[249] 1
x[250] 0
x[251] 1
x[252] 1
x[253] 0
x[254] 0
x[255] 1
x[256] 0
x[257] 0
x[258] 1
x[259] 1
x[260] 0
x[261] 1
x[262] 0
x[263] 1
x[264] 1
x[265] 0
x[266] 1
x[267] 1
x[268] 0
x[269] 0
x[270] 1
x[271] 1
x[272] 1
x[273] 1
x[274] 1
x[275] 0
x[276] 0
x[277] 1
x[278] 0
x[279] 1
x[280] 1
x[281] 1
x[282] 0
x[283] 0
x[284] 1
x[285] 1
x[286] 0
x[287] 1
x[288] 1
x[289] 1
x[290] 0
x[291] 0
x[292] 0
x[293] 0
x[294] 1
x[295] 0
x[296] 1
x[297] 0
x[298] 1
x[299] 1
x[300] 0
x[301] 1
x[302] 0
x[303] 0
x[304] 0
x[305] 0
x[306] 0
x[307] 1
x[308] 1
x[309] 0
x[310] 0
x[311] 0
x[312] 1
x[313] 0
x[314] 1
x[315] 0
x[316] 1
x[317] 1
x[318] 0
x[319] 1
x[320] 1
x[321] 0
x[322] 0
x[323] 0
x[324] 1
x[325] 1
x[326] 0
x[327] 0
x[328] 0
x[329] 0
x[330] 1
x[331] 1
x[332] 0
x[333] 0
x[334] 0
x[335] 1
x[336] 0
x[337] 1
x[338] 0
x[339] 0
x[340] 0
x[341] 0
x[342] 0
x[343] 1
x[344] 1
x[345] 1
x[346] 0
x[347] 1
x[348] 1
x[349] 1
x[350] 0
x[351] 1
x[352] 0
x[353] 0
x[354] 1
x[355] 1
x[356] 1
x[357] 0
x[358] 0
x[359] 1
x[360] 0
x[361] 0
x[362] 1
x[363] 0
x[364] 1
x[365] 1
x[366] 0
x[367] 1
x[368] 1
x[369] 0
x[370] 1
x[371] 0
x[372] 0
x[373] 1
x[374] 0
x[375] 1
x[376] 1
x[377] 1
x[378] 0
x[379] 1
x[380] 0
x[381] 0
x[382] 1
x[383] 0
x[384] 0
x[385] 0
x[386] 1
x[387] 1
x[388] 1
x[389] 1
x[390] 0
x[391] 0
x[392] 0
x[393] 1
x[394] 1
x[395] 1
x[396] 0
x[397] 0
x[398] 0
x[399] 1
x[400] 1
x[401] 1
x[402] 1
x[403] 0
x[404] 0
x[405] 1
x[406] 1
x[407] 0
x[408] 1
x[409] 1
x[410] 0
x[411] 0
x[412] 1
x[413] 0
x[414] 0
x[415] 1
x[416] 0
x[417] 0
x[418] 1
x[419] 1
x[420] 1
x[421] 0
x[422] 1
x[423] 0
x[424] 0
x[425] 0
x[426] 1
x[427] 0
x[428] 0
x[429] 0
x[430] 0
x[431] 1
x[432] 1
x[433] 1
x[434] 1
x[435] 1
x[436] 1
x[437] 1
x[438] 1
x[439] 0
x[440] 0
x[441] 0
x[442] 1
x[443] 1
x[444] 0
x[445] 0
x[446] 0
x[447] 0
x[448] 0
x[449] 1
x[450] 1
x[451] 1
x[452] 1
x[453] 0
x[454] 0
x[455] 0
x[456] 1
x[457] 1
x[458] 1
x[459] 1
x[460] 1
x[461] 1
x[462] 1
x[463] 0
x[464] 1
x[465] 0
x[466] 1
x[467] 1
x[468] 0
x[469] 1
x[470] 1
x[471] 1
x[472] 0
x[473] 0
x[474] 1
x[475] 1
x[476] 0
x[477] 1
x[478] 1
x[479] 0
x[480] 0
x[481] 0
x[482] 0
x[483] 1
x[484] 0
x[485] 1
x[486] 1
x[487] 1
x[488] 1
x[489] 0
x[490] 1
x[491] 0
x[492] 1
x[493] 1
x[494] 0
x[495] 0
x[496] 1
x[497] 1
x[498] 0
x[499] 1
x[500] 1
x[501] 0
x[502] 1
x[503] 0
x[504] 0
x[505] 1
x[506] 1
x[507] 1
x[508] 1
x[509] 1
x[510] 1
x[511] 0
x[512] 1
x[513] 0
x[514] 0
x[515] 0
x[516] 0
x[517] 0
x[518] 0
x[519] 0
x[520] 1
x[521] 1
x[522] 1
x[523] 0
x[524] 1
x[525] 1
x[526] 0
x[527] 1
x[528] 1
x[529] 0
x[530] 0
x[531] 0
x[532] 1
x[533] 0
x[534] 0
x[535] 0
x[536] 0
x[537] 1
x[538] 0
x[539] 1
x[540] 1
x[541] 0
x[542] 1
x[543] 0
x[544] 0
x[545] 1
x[546] 0
x[547] 1
x[548] 1
x[549] 0
x[550] 1
x[551] 0
x[552] 1
x[553] 0
x[554] 1
x[555] 0
x[556] 1
x[557] 0
x[558] 0
x[559] 0
x[560] 0
x[561] 1
x[562] 1
x[563] 0
x[564] 0
x[565] 1
x[566] 0
x[567] 1
x[568] 0
x[569] 1
x[570] 1
x[571] 1
x[572] 1
x[573] 0
x[574] 1
x[575] 0
x[576] 0
x[577] 1
x[578] 0
x[579] 0
x[580] 1
x[581] 1
x[582] 0
x[583] 0
x[584] 1
x[585] 0
x[586] 1
x[587] 0
x[588] 1
x[589] 0
x[590] 1
x[591] 0
x[592] 0
x[593] 0
x[594] 0
x[595] 1
x[596] 0
x[597] 0
x[598] 1
x[599] 0
x[600] 1
x[601] 0
x[602] 1
x[603] 1
x[604] 1
x[605] 0
x[606] 0
x[607] 1
x[608] 0
x[609] 1
x[610] 0
x[611] 0
x[612] 1
x[613] 1
x[614] 0
x[615] 1
x[616] 0
x[617] 0
x[618] 1
x[619] 0
x[620] 1
x[621] 0
x[622] 0
x[623] 0
x[624] 1
x[625] 0
x[626] 0
x[627] 1
x[628] 1
x[629] 1
x[630] 0
x[631] 1
x[632] 1
x[633] 1
x[634] 1
x[635] 0
x[636] 0
x[637] 0
x[638] 1
x[639] 1
x[640] 0
x[641] 0
x[642] 0
x[643] 0
x[644] 1
x[645] 0
x[646] 1
x[647] 0
x[648] 1
x[649] 0
x[650] 1
x[651] 1
x[652] 0
x[653] 0
x[654] 1
x[655] 1
x[656] 1
x[657] 0
x[658] 1
x[659] 1
x[660] 0
x[661] 1
x[662] 1
x[663] 1
x[664] 0
x[665] 1
x[666] 0
x[667] 1
x[668] 0
x[669] 0
x[670] 1
x[671] 0
x[672] 0
x[673] 1
x[674] 0
x[675] 1
x[676] 1
x[677] 1
x[678] 0
x[679] 1
x[680] 1
x[681] 0
x[682] 0
x[683] 0
x[684] 1
x[685] 1
x[686] 0
x[687] 1
x[688] 0
x[689] 1
x[690] 0
x[691] 0
x[692] 0
x[693] 1
x[694] 0
x[695] 1
x[696] 1
x[697] 0
x[698] 1
x[699] 0
x[700] 0
x[701] 0
x[702] 1
x[703] 0
x[704] 1
x[705] 0
x[706] 1
x[707] 0
x[708] 0
x[709] 1
x[710] 1
x[711] 1
x[712] 1
x[713] 0
x[714] 0
x[715] 1
x[716] 1
x[717] 1
x[718] 1
x[719] 1
x[720] 0
x[721] 1
x[722] 1
x[723] 1
x[724] 0
x[725] 1
x[726] 0
x[727] 0
x[728] 0
x[729] 1
x[730] 1
x[731] 1
x[732] 1
x[733] 0
x[734] 0
x[735] 1
x[736] 0
x[737] 1
x[738] 1
x[739] 1
x[740] 1
x[741] 0
x[742] 1
x[743] 1
x[744] 0
x[745] 1
x[746] 1
x[747] 0
x[748] 1
x[749] 1
x[750] 1
x[751] 0
x[752] 0
x[753] 0
x[754] 1
x[755] 1
x[756] 0
x[757] 1
x[758] 0
x[759] 1
x[760] 0
x[761] 0
x[762] 0
x[763] 0
x[764] 0
x[765] 0
x[766] 0
x[767] 1
x[768] 1
x[769] 0
x[770] 1
x[771] 1
x[772] 1
x[773] 1
x[774] 1
x[775] 1
x[776] 1
x[777] 0
x[778] 1
x[779] 1
x[780] 1
x[781] 0
x[782] 0
x[783] 0
x[784] 0
x[785] 0
x[786] 1
x[787] 1
x[788] 1
x[789] 0
x[790] 0
x[791] 0
x[792] 1
x[793] 1
x[794] 0
x[795] 0
x[796] 0
x[797] 0
x[798] 1
x[799] 0
x[800] 0
x[801] 1
x[802] 0
x[803] 1
x[804] 0
x[805] 1
x[806] 0
x[807] 1
x[808] 1
x[809] 1
x[810] 1
x[811] 0
x[812] 0
x[813] 0
x[814] 1
x[815] 0
x[816] 0
x[817] 1
x[818] 1
x[819] 1
x[820] 0
x[821] 0
x[822] 0
x[823] 0
x[824] 1
x[825] 0
x[826] 0
x[827] 0
x[828] 0
x[829] 0
x[830] 1
x[831] 1
x[832] 1
x[833] 0
x[834] 1
x[835] 1
x[836] 0
x[837] 0
x[838] 0
x[839] 1
x[840] 1
x[841] 0
x[842] 1
x[843] 1
x[844] 1
x[845] 0
x[846] 0
x[847] 1
x[848] 0
x[849] 1
x[850] 1
x[851] 1
x[852] 1
x[853] 1
x[854] 0
x[855] 1
x[856] 1
x[857] 1
x[858] 0
x[859] 1
x[860] 1
x[861] 0
x[862] 0
x[863] 1
x[864] 1
x[865] 1
x[866] 1
x[867] 0
x[868] 1
x[869] 0
x[870] 1
x[871] 0
x[872] 1
x[873] 1
x[874] 1
x[875] 0
x[876] 0
x[877] 1
x[878] 0
x[879] 0
x[880] 0
x[881] 1
x[882] 0
x[883] 0
x[884] 0
x[885] 1
x[886] 0
x[887] 0
x[888] 1
x[889] 1
x[890] 1
x[891] 0
x[892] 0
x[893] 1
x[894] 1
x[895] 0
x[896] 0
x[897] 0
x[898] 0
x[899] 1
x[900] 1
x[901] 0
x[902] 0
x[903] 0
x[904] 1
x[905] 1
x[906] 1
x[907] 0
x[908] 1
x[909] 0
x[910] 0
x[911] 1
x[912] 1
x[913] 1
x[914] 0
x[915] 0
x[916] 0
x[917] 0
x[918] 0
x[919] 0
x[920] 0
x[921] 1
x[922] 0
x[923] 1
x[924] 1
x[925] 0
x[926] 0
x[927] 0
x[928] 0
x[929] 0
x[930] 1
x[931] 0
x[932] 1
x[933] 1
x[934] 0
x[935] 1
x[936] 0
x[937] 0
x[938] 1
x[939] 1
x[940] 0
x[941] 0
x[942] 1
x[943] 1
x[944] 0
x[945] 1
x[946] 0
x[947] 0
x[948] 0
x[949] 0
x[950] 1
x[951] 0
x[952] 1
x[953] 1
x[954] 0
x[955] 1
x[956] 0
x[957] 0
x[958] 1
x[959] 1
x[960] 1
x[961] 0
x[962] 1
x[963] 0
x[964] 0
x[965] 1
x[966] 1
x[967] 0
x[968] 0
x[969] 0
x[970] 1
x[971] 1
x[972] 1
x[973] 0
x[974] 0
x[975] 0
x[976] 0
x[977] 0
x[978] 0
x[979] 0
x[980] 0
x[981] 0
x[982] 0
x[983] 0
x[984] 1
x[985] 0
x[986] 1
x[987] 1
x[988] 1
x[989] 0
x[990] 0
x[991] 1
x[992] 1
x[993] 1
x[994] 0
x[995] 0
x[996] 1
x[997] 1
x[998] 0
x[999] 0
